Minimize
  + 94965.83878580002 Constant
Subject To
 R12: (pr2-pose-(0,_0)) = 122.8165701925755
 R24: (can2_init_target-value-(0,_0)) = 4
 R55: (pr2-pose-(0,_0)) - (can2_init_target-value-(0,_0)) <= 10
Bounds
 (pr2-pose-(0,_0)) free
 (can2_init_target-value-(0,_0)) free
 Constant = 1
End
